c Mesh Graph
c 14 Rows, 16 columns, capacities in range [0, 300]
p max 226 658
n 1 s
n 226 t
a 1 15 900
a 1 14 900
a 1 13 900
a 1 12 900
a 1 11 900
a 1 10 900
a 1 9 900
a 1 8 900
a 1 7 900
a 1 6 900
a 1 5 900
a 1 4 900
a 1 3 900
a 1 2 900
a 2 17 178
a 2 16 287
a 2 29 284
a 3 18 236
a 3 17 294
a 3 16 116
a 4 19 250
a 4 18 193
a 4 17 287
a 5 20 128
a 5 19 63
a 5 18 122
a 6 21 264
a 6 20 260
a 6 19 291
a 7 22 127
a 7 21 241
a 7 20 227
a 8 23 12
a 8 22 137
a 8 21 173
a 9 24 130
a 9 23 268
a 9 22 69
a 10 25 63
a 10 24 231
a 10 23 183
a 11 26 236
a 11 25 68
a 11 24 224
a 12 27 223
a 12 26 103
a 12 25 30
a 13 28 268
a 13 27 270
a 13 26 259
a 14 29 212
a 14 28 257
a 14 27 194
a 15 16 274
a 15 29 130
a 15 28 143
a 16 31 285
a 16 30 120
a 16 43 22
a 17 32 225
a 17 31 99
a 17 30 38
a 18 33 114
a 18 32 271
a 18 31 216
a 19 34 81
a 19 33 92
a 19 32 227
a 20 35 63
a 20 34 274
a 20 33 57
a 21 36 182
a 21 35 197
a 21 34 171
a 22 37 285
a 22 36 226
a 22 35 106
a 23 38 6
a 23 37 237
a 23 36 28
a 24 39 14
a 24 38 130
a 24 37 47
a 25 40 196
a 25 39 25
a 25 38 258
a 26 41 15
a 26 40 46
a 26 39 283
a 27 42 165
a 27 41 135
a 27 40 268
a 28 43 188
a 28 42 51
a 28 41 244
a 29 30 279
a 29 43 277
a 29 42 109
a 30 45 4
a 30 44 85
a 30 57 189
a 31 46 200
a 31 45 255
a 31 44 252
a 32 47 177
a 32 46 61
a 32 45 133
a 33 48 113
a 33 47 140
a 33 46 169
a 34 49 295
a 34 48 187
a 34 47 227
a 35 50 71
a 35 49 196
a 35 48 240
a 36 51 168
a 36 50 179
a 36 49 135
a 37 52 3
a 37 51 198
a 37 50 202
a 38 53 53
a 38 52 193
a 38 51 118
a 39 54 81
a 39 53 2
a 39 52 57
a 40 55 166
a 40 54 242
a 40 53 87
a 41 56 120
a 41 55 245
a 41 54 90
a 42 57 232
a 42 56 130
a 42 55 41
a 43 44 72
a 43 57 298
a 43 56 218
a 44 59 10
a 44 58 276
a 44 71 82
a 45 60 257
a 45 59 268
a 45 58 128
a 46 61 187
a 46 60 154
a 46 59 198
a 47 62 84
a 47 61 107
a 47 60 66
a 48 63 29
a 48 62 225
a 48 61 120
a 49 64 30
a 49 63 33
a 49 62 172
a 50 65 271
a 50 64 120
a 50 63 4
a 51 66 216
a 51 65 209
a 51 64 169
a 52 67 97
a 52 66 250
a 52 65 41
a 53 68 146
a 53 67 219
a 53 66 24
a 54 69 122
a 54 68 52
a 54 67 147
a 55 70 89
a 55 69 180
a 55 68 156
a 56 71 242
a 56 70 129
a 56 69 165
a 57 58 101
a 57 71 194
a 57 70 51
a 58 73 25
a 58 72 65
a 58 85 135
a 59 74 57
a 59 73 288
a 59 72 215
a 60 75 228
a 60 74 292
a 60 73 244
a 61 76 137
a 61 75 160
a 61 74 266
a 62 77 138
a 62 76 252
a 62 75 233
a 63 78 108
a 63 77 276
a 63 76 29
a 64 79 159
a 64 78 122
a 64 77 175
a 65 80 38
a 65 79 30
a 65 78 296
a 66 81 219
a 66 80 194
a 66 79 136
a 67 82 112
a 67 81 244
a 67 80 129
a 68 83 177
a 68 82 130
a 68 81 229
a 69 84 164
a 69 83 44
a 69 82 5
a 70 85 207
a 70 84 39
a 70 83 114
a 71 72 119
a 71 85 5
a 71 84 41
a 72 87 70
a 72 86 289
a 72 99 229
a 73 88 97
a 73 87 18
a 73 86 118
a 74 89 271
a 74 88 244
a 74 87 225
a 75 90 300
a 75 89 291
a 75 88 84
a 76 91 245
a 76 90 126
a 76 89 173
a 77 92 240
a 77 91 6
a 77 90 91
a 78 93 70
a 78 92 287
a 78 91 255
a 79 94 165
a 79 93 43
a 79 92 183
a 80 95 256
a 80 94 208
a 80 93 98
a 81 96 12
a 81 95 249
a 81 94 5
a 82 97 300
a 82 96 229
a 82 95 123
a 83 98 69
a 83 97 47
a 83 96 244
a 84 99 12
a 84 98 23
a 84 97 41
a 85 86 2
a 85 99 106
a 85 98 11
a 86 101 179
a 86 100 31
a 86 113 62
a 87 102 237
a 87 101 121
a 87 100 6
a 88 103 223
a 88 102 127
a 88 101 245
a 89 104 17
a 89 103 9
a 89 102 66
a 90 105 225
a 90 104 159
a 90 103 283
a 91 106 225
a 91 105 163
a 91 104 238
a 92 107 153
a 92 106 37
a 92 105 1
a 93 108 251
a 93 107 280
a 93 106 300
a 94 109 274
a 94 108 72
a 94 107 69
a 95 110 131
a 95 109 82
a 95 108 132
a 96 111 161
a 96 110 195
a 96 109 134
a 97 112 282
a 97 111 200
a 97 110 64
a 98 113 160
a 98 112 197
a 98 111 300
a 99 100 169
a 99 113 14
a 99 112 274
a 100 115 27
a 100 114 296
a 100 127 291
a 101 116 241
a 101 115 285
a 101 114 267
a 102 117 277
a 102 116 285
a 102 115 191
a 103 118 8
a 103 117 37
a 103 116 43
a 104 119 80
a 104 118 157
a 104 117 46
a 105 120 213
a 105 119 288
a 105 118 19
a 106 121 160
a 106 120 173
a 106 119 149
a 107 122 111
a 107 121 237
a 107 120 10
a 108 123 7
a 108 122 288
a 108 121 43
a 109 124 73
a 109 123 14
a 109 122 202
a 110 125 120
a 110 124 56
a 110 123 122
a 111 126 105
a 111 125 22
a 111 124 200
a 112 127 141
a 112 126 212
a 112 125 140
a 113 114 229
a 113 127 6
a 113 126 168
a 114 129 85
a 114 128 51
a 114 141 228
a 115 130 125
a 115 129 121
a 115 128 59
a 116 131 297
a 116 130 270
a 116 129 23
a 117 132 285
a 117 131 31
a 117 130 182
a 118 133 273
a 118 132 73
a 118 131 293
a 119 134 286
a 119 133 26
a 119 132 51
a 120 135 41
a 120 134 200
a 120 133 123
a 121 136 114
a 121 135 99
a 121 134 243
a 122 137 25
a 122 136 291
a 122 135 99
a 123 138 82
a 123 137 210
a 123 136 291
a 124 139 133
a 124 138 137
a 124 137 220
a 125 140 5
a 125 139 195
a 125 138 56
a 126 141 274
a 126 140 270
a 126 139 180
a 127 128 56
a 127 141 151
a 127 140 177
a 128 143 180
a 128 142 143
a 128 155 161
a 129 144 206
a 129 143 194
a 129 142 185
a 130 145 105
a 130 144 68
a 130 143 222
a 131 146 255
a 131 145 62
a 131 144 14
a 132 147 245
a 132 146 160
a 132 145 127
a 133 148 207
a 133 147 203
a 133 146 203
a 134 149 43
a 134 148 122
a 134 147 285
a 135 150 290
a 135 149 229
a 135 148 169
a 136 151 259
a 136 150 109
a 136 149 173
a 137 152 109
a 137 151 37
a 137 150 199
a 138 153 4
a 138 152 249
a 138 151 254
a 139 154 249
a 139 153 134
a 139 152 134
a 140 155 68
a 140 154 55
a 140 153 91
a 141 142 130
a 141 155 69
a 141 154 247
a 142 157 289
a 142 156 247
a 142 169 201
a 143 158 191
a 143 157 150
a 143 156 198
a 144 159 64
a 144 158 134
a 144 157 104
a 145 160 293
a 145 159 54
a 145 158 198
a 146 161 153
a 146 160 226
a 146 159 187
a 147 162 189
a 147 161 176
a 147 160 197
a 148 163 137
a 148 162 130
a 148 161 58
a 149 164 22
a 149 163 15
a 149 162 61
a 150 165 129
a 150 164 105
a 150 163 61
a 151 166 249
a 151 165 51
a 151 164 128
a 152 167 195
a 152 166 3
a 152 165 257
a 153 168 44
a 153 167 200
a 153 166 298
a 154 169 229
a 154 168 3
a 154 167 240
a 155 156 282
a 155 169 201
a 155 168 4
a 156 171 260
a 156 170 139
a 156 183 48
a 157 172 135
a 157 171 36
a 157 170 252
a 158 173 16
a 158 172 93
a 158 171 140
a 159 174 30
a 159 173 205
a 159 172 28
a 160 175 186
a 160 174 265
a 160 173 50
a 161 176 236
a 161 175 144
a 161 174 230
a 162 177 239
a 162 176 101
a 162 175 178
a 163 178 190
a 163 177 150
a 163 176 72
a 164 179 193
a 164 178 89
a 164 177 168
a 165 180 145
a 165 179 144
a 165 178 96
a 166 181 283
a 166 180 191
a 166 179 130
a 167 182 70
a 167 181 142
a 167 180 141
a 168 183 162
a 168 182 33
a 168 181 27
a 169 170 118
a 169 183 61
a 169 182 43
a 170 185 82
a 170 184 162
a 170 197 124
a 171 186 226
a 171 185 91
a 171 184 10
a 172 187 78
a 172 186 268
a 172 185 297
a 173 188 227
a 173 187 91
a 173 186 235
a 174 189 15
a 174 188 258
a 174 187 125
a 175 190 159
a 175 189 106
a 175 188 69
a 176 191 101
a 176 190 287
a 176 189 213
a 177 192 295
a 177 191 127
a 177 190 247
a 178 193 79
a 178 192 153
a 178 191 17
a 179 194 191
a 179 193 247
a 179 192 230
a 180 195 52
a 180 194 71
a 180 193 48
a 181 196 194
a 181 195 132
a 181 194 181
a 182 197 213
a 182 196 128
a 182 195 158
a 183 184 56
a 183 197 115
a 183 196 287
a 184 199 13
a 184 198 291
a 184 211 213
a 185 200 170
a 185 199 111
a 185 198 280
a 186 201 156
a 186 200 75
a 186 199 190
a 187 202 34
a 187 201 21
a 187 200 42
a 188 203 239
a 188 202 89
a 188 201 88
a 189 204 185
a 189 203 71
a 189 202 167
a 190 205 7
a 190 204 118
a 190 203 57
a 191 206 138
a 191 205 50
a 191 204 161
a 192 207 18
a 192 206 260
a 192 205 106
a 193 208 184
a 193 207 246
a 193 206 19
a 194 209 174
a 194 208 159
a 194 207 74
a 195 210 284
a 195 209 190
a 195 208 138
a 196 211 58
a 196 210 79
a 196 209 8
a 197 198 130
a 197 211 172
a 197 210 215
a 198 213 219
a 198 212 260
a 198 225 1
a 199 214 289
a 199 213 126
a 199 212 239
a 200 215 158
a 200 214 234
a 200 213 175
a 201 216 259
a 201 215 94
a 201 214 182
a 202 217 218
a 202 216 200
a 202 215 71
a 203 218 164
a 203 217 270
a 203 216 140
a 204 219 74
a 204 218 95
a 204 217 23
a 205 220 263
a 205 219 232
a 205 218 248
a 206 221 93
a 206 220 291
a 206 219 283
a 207 222 16
a 207 221 258
a 207 220 92
a 208 223 275
a 208 222 258
a 208 221 222
a 209 224 152
a 209 223 248
a 209 222 192
a 210 225 138
a 210 224 122
a 210 223 232
a 211 212 231
a 211 225 55
a 211 224 141
a 212 226 900
a 213 226 900
a 214 226 900
a 215 226 900
a 216 226 900
a 217 226 900
a 218 226 900
a 219 226 900
a 220 226 900
a 221 226 900
a 222 226 900
a 223 226 900
a 224 226 900
a 225 226 900
